p cnf 146 220
-74 71 0
-74 72 0
74 -71 -72 0
-75 67 0
-75 68 0
75 -67 -68 0
-76 61 0
-76 62 0
76 -61 -62 0
-77 59 0
-77 60 0
77 -59 -60 0
-78 57 0
-78 58 0
78 -57 -58 0
-79 55 0
-79 56 0
79 -55 -56 0
-80 53 0
-80 54 0
80 -53 -54 0
-81 51 0
-81 52 0
81 -51 -52 0
-82 41 0
-82 42 0
82 -41 -42 0
-83 37 0
-83 38 0
83 -37 -38 0
-84 39 0
-84 40 0
84 -39 -40 0
-85 -83 0
-85 -84 0
85 83 84 0
-86 -82 0
-86 85 0
86 82 -85 0
-87 43 0
-87 44 0
87 -43 -44 0
-88 86 0
-88 -87 0
88 -86 87 0
-89 45 0
-89 46 0
89 -45 -46 0
-90 88 0
-90 -89 0
90 -88 89 0
-91 47 0
-91 48 0
91 -47 -48 0
-92 90 0
-92 -91 0
92 -90 91 0
-93 49 0
-93 50 0
93 -49 -50 0
-94 92 0
-94 -93 0
94 -92 93 0
-95 -81 0
-95 94 0
95 81 -94 0
-96 -80 0
-96 95 0
96 80 -95 0
-97 -79 0
-97 96 0
97 79 -96 0
-98 -78 0
-98 97 0
98 78 -97 0
-99 -77 0
-99 98 0
99 77 -98 0
-100 -76 0
-100 99 0
100 76 -99 0
-101 63 0
-101 64 0
101 -63 -64 0
-102 100 0
-102 -101 0
102 -100 101 0
-103 65 0
-103 66 0
103 -65 -66 0
-104 102 0
-104 -103 0
104 -102 103 0
-105 -75 0
-105 104 0
105 75 -104 0
-106 69 0
-106 70 0
106 -69 -70 0
-107 105 0
-107 -106 0
107 -105 106 0
-108 -74 0
-108 107 0
108 74 -107 0
-109 -73 0
-109 -108 0
109 73 108 0
-110 35 0
-110 36 0
110 -35 -36 0
-111 31 0
-111 32 0
111 -31 -32 0
-112 23 0
-112 24 0
112 -23 -24 0
-113 21 0
-113 22 0
113 -21 -22 0
-114 19 0
-114 20 0
114 -19 -20 0
-115 17 0
-115 18 0
115 -17 -18 0
-116 11 0
-116 12 0
116 -11 -12 0
-117 9 0
-117 10 0
117 -9 -10 0
-118 5 0
-118 6 0
118 -5 -6 0
-119 3 0
-119 4 0
119 -3 -4 0
-120 1 0
-120 2 0
120 -1 -2 0
-121 -119 0
-121 -120 0
121 119 120 0
-122 -118 0
-122 121 0
122 118 -121 0
-123 7 0
-123 8 0
123 -7 -8 0
-124 122 0
-124 -123 0
124 -122 123 0
-125 -117 0
-125 124 0
125 117 -124 0
-126 -116 0
-126 125 0
126 116 -125 0
-127 13 0
-127 14 0
127 -13 -14 0
-128 126 0
-128 -127 0
128 -126 127 0
-129 15 0
-129 16 0
129 -15 -16 0
-130 128 0
-130 -129 0
130 -128 129 0
-131 -115 0
-131 130 0
131 115 -130 0
-132 -114 0
-132 131 0
132 114 -131 0
-133 -113 0
-133 132 0
133 113 -132 0
-134 -112 0
-134 133 0
134 112 -133 0
-135 25 0
-135 26 0
135 -25 -26 0
-136 134 0
-136 -135 0
136 -134 135 0
-137 27 0
-137 28 0
137 -27 -28 0
-138 136 0
-138 -137 0
138 -136 137 0
-139 29 0
-139 30 0
139 -29 -30 0
-140 138 0
-140 -139 0
140 -138 139 0
-141 -111 0
-141 140 0
141 111 -140 0
-142 33 0
-142 34 0
142 -33 -34 0
-143 141 0
-143 -142 0
143 -141 142 0
-144 -110 0
-144 143 0
144 110 -143 0
-145 73 0
-145 -144 0
145 -73 144 0
-146 -109 0
-146 -145 0
146 109 145 0
-146 0
